c Sudoku solution
p cnf 729 0
175 0
213 0
329 0
351 0
368 0
411 0
449 0
472 0
486 0
526 0
574 0
619 0
628 0
641 0
727 0
743 0
852 0
873 0
677 0
376 0
881 0
271 0
591 0
589 0
498 0
896 0
924 0
933 0
731 0
825 0
818 0
839 0
961 0
121 0
222 0
423 0
948 0
979 0
778 0
558 0
563 0
153 0
995 0
987 0
912 0
716 0
956 0
666 0
542 0
632 0
434 0
654 0
162 0
199 0
685 0
693 0
383 0
392 0
782 0
794 0
297 0
457 0
465 0
769 0
755 0
259 0
264 0
288 0
184 0
117 0
314 0
335 0
146 0
245 0
347 0
138 0
236 0
515 0
537 0
844 0
867 0
